(set-logic UFDT)
(declare-datatypes ((nat 0)) (((zero) (s (s0 nat)))))
(declare-fun add (nat nat) nat)
(non-erasing add 2)
(injective add (true true))
(declare-fun leq (nat nat) Bool)
(assert (forall ((y nat)) (= (add zero y) y)))
(assert (forall ((x nat) (y nat)) (= (add (s x) y) (s (add x y)))))
(assert (forall ((y nat)) (leq zero y)))
(assert (forall ((x nat)) (not (leq (s x) zero))))
(assert (forall ((x nat) (y nat)) (= (leq (s x) (s y)) (leq x y))))
(assert (not (forall ((v0 nat) (v1 nat) (v2 nat) (v3 nat) (v4 nat) (v5 nat) (v6 nat) (v7 nat) (v8 nat)) (= (add (add (s v1) v4) (s (s (add (s (add (s (s v2)) v7)) (s (s (add (s (s (add (s (s (s (add v6 (s (add (s v0) v5)))))) (s (s (s (add (s v3) v6))))))) (s v8)))))))) (s (add (add (s v6) (s (s (add (s (s (add (add (s (s (s (s (s v0))))) (s v5)) (add v2 v7)))) (s (s (add (add (s (s v1)) v6) (add (s (s v8)) (s (s v3)))))))))) v4))))))
(check-sat)
